nNurses = 188;
nHours = 35;
minHours = 4;
maxHours = 20;
maxConsec = 11;
maxPresence = 35;
demand = [34, 37, 38, 34, 33, 30, 26, 22, 25, 21, 18, 19, 23, 21, 23, 20, 15, 18, 18, 17, 20, 21, 20, 20, 20, 18, 20, 18, 19, 24, 21, 23, 23, 23, 27];
